
Gurobi 9.0.1 (linux64) logging started Thu Apr 30 16:14:49 2020

Gurobi Optimizer version 9.0.1 build v9.0.1rc0 (linux64)
Optimize a model with 11327 rows, 12060 columns and 198990 nonzeros
Model fingerprint: 0x1f272a42
Variable types: 0 continuous, 12060 integer (12032 binary)
Coefficient statistics:
  Matrix range     [1e+00, 1e+01]
  Objective range  [3e+00, 1e+02]
  Bounds range     [1e+00, 1e+00]
  RHS range        [1e+00, 1e+00]

User MIP start produced solution with objective 998 (0.27s)
Loaded user MIP start with objective 998

Presolve removed 928 rows and 1887 columns
Presolve time: 2.83s
Presolved: 10399 rows, 10173 columns, 162246 nonzeros
Variable types: 0 continuous, 10173 integer (10147 binary)

Root simplex log...

Iteration    Objective       Primal Inf.    Dual Inf.      Time
    3463    5.5620018e+02   3.582214e+03   0.000000e+00      5s
    6323    5.6842307e+02   2.603301e+03   0.000000e+00     10s
    8598    5.7819947e+02   3.207788e+03   0.000000e+00     15s
   10483    5.8040997e+02   2.415248e+03   0.000000e+00     20s
   12152    5.8155767e+02   4.440896e+02   0.000000e+00     25s
   13674    5.8236616e+02   2.303290e+02   0.000000e+00     30s
   15204    5.8330901e+02   1.315821e+02   0.000000e+00     35s
   16622    5.8383989e+02   2.459714e+03   0.000000e+00     40s
   18188    5.8423002e+02   1.122184e+02   0.000000e+00     45s
   18769    5.8425538e+02   0.000000e+00   0.000000e+00     47s

Root relaxation: objective 5.842554e+02, 18769 iterations, 43.16 seconds

    Nodes    |    Current Node    |     Objective Bounds      |     Work
 Expl Unexpl |  Obj  Depth IntInf | Incumbent    BestBd   Gap | It/Node Time

     0     0  584.25538    0 3483  998.00000  584.25538  41.5%     -   49s
     0     0  605.22019    0 3593  998.00000  605.22019  39.4%     -  146s
     0     0  617.60242    0 3594  998.00000  617.60242  38.1%     -  273s
     0     0  617.75759    0 3589  998.00000  617.75759  38.1%     -  291s
     0     0  617.78202    0 3579  998.00000  617.78202  38.1%     -  296s
     0     0  617.79549    0 3571  998.00000  617.79549  38.1%     -  300s
     0     0  617.79807    0 3565  998.00000  617.79807  38.1%     -  302s
     0     0  631.53306    0 3668  998.00000  631.53306  36.7%     -  532s
     0     0  633.03972    0 3653  998.00000  633.03972  36.6%     -  588s
     0     0  633.25512    0 3686  998.00000  633.25512  36.5%     -  616s
     0     0  633.28405    0 3685  998.00000  633.28405  36.5%     -  623s
     0     0  633.28955    0 3686  998.00000  633.28955  36.5%     -  626s
     0     0  636.98691    0 3700  998.00000  636.98691  36.2%     -  870s
     0     0  637.42246    0 3718  998.00000  637.42246  36.1%     -  907s
     0     0  637.52161    0 3734  998.00000  637.52161  36.1%     -  924s
     0     0  637.55626    0 3733  998.00000  637.55626  36.1%     -  933s
     0     0  637.56728    0 3727  998.00000  637.56728  36.1%     -  939s
     0     0  638.62509    0 3736  998.00000  638.62509  36.0%     - 1012s
     0     0  638.75516    0 3726  998.00000  638.75516  36.0%     - 1031s
     0     0  638.79788    0 3713  998.00000  638.79788  36.0%     - 1041s
     0     0  638.81127    0 3730  998.00000  638.81127  36.0%     - 1047s
     0     0  639.29609    0 3728  998.00000  639.29609  35.9%     - 1092s
     0     0  639.37790    0 3739  998.00000  639.37790  35.9%     - 1109s
     0     0  639.41431    0 3751  998.00000  639.41431  35.9%     - 1120s
     0     0  639.43499    0 3759  998.00000  639.43499  35.9%     - 1126s
     0     0  639.89679    0 3721  998.00000  639.89679  35.9%     - 1163s
     0     0  639.98456    0 3730  998.00000  639.98456  35.9%     - 1180s
     0     0  640.01466    0 3746  998.00000  640.01466  35.9%     - 1190s
     0     0  640.02643    0 3739  998.00000  640.02643  35.9%     - 1195s
     0     0  640.33947    0 3751  998.00000  640.33947  35.8%     - 1229s
     0     0  640.39845    0 3763  998.00000  640.39845  35.8%     - 1245s
     0     0  640.41171    0 3762  998.00000  640.41171  35.8%     - 1250s
     0     0  640.58063    0 3746  998.00000  640.58063  35.8%     - 1282s
     0     0  640.58063    0 3745  998.00000  640.58063  35.8%     - 1297s
     0     2  640.58110    0 3744  998.00000  640.58110  35.8%     - 1435s
     1     3  645.60402    1 3564  998.00000  640.58110  35.8% 32721 1676s
     2     4  641.93045    1 3738  998.00000  641.93045  35.7% 21272 1752s
     3     5  642.44353    2 3713  998.00000  641.93045  35.7% 16834 1806s
     4     6  668.38720    2 3519  998.00000  642.44353  35.6% 28819 2234s
     5     7  643.09460    3 3704  998.00000  642.44353  35.6% 24724 2297s
     6     8  656.89662    3 3459  998.00000  643.09470  35.6% 30940 2694s
     7     9  643.25002    4 3721  998.00000  643.09626  35.6% 26907 2712s
     8    10  643.37229    5 3709  998.00000  643.09626  35.6% 23832 2728s
     9    11  643.80017    6 3697  998.00000  643.09626  35.6% 22224 2781s
    10    12  644.37990    7 3696  998.00000  643.09626  35.6% 21051 2842s
    11    13  662.46391    7 3535  998.00000  643.09626  35.6% 22460 3050s
    12    14  645.21353    8 3658  998.00000  643.09626  35.6% 21691 3120s
    13    15  678.82252    8 3420  998.00000  643.09626  35.6% 23479 3371s
    14    16  645.51153    9 3685  998.00000  643.09626  35.6% 22132 3401s
    15    17  646.63510   10 3664  998.00000  643.09626  35.6% 21483 3482s
    16    18  646.64953   11 3650  998.00000  643.09626  35.6% 20189 3600s

Cutting planes:
  Gomory: 1
  MIR: 57
  StrongCG: 6
  GUB cover: 1
  Zero half: 46
  RLT: 1983

Explored 17 nodes (516055 simplex iterations) in 3600.02 seconds
Thread count was 1 (of 40 available processors)

Solution count 1: 998 

Time limit reached
Best objective 9.980000000000e+02, best bound 6.440000000000e+02, gap 35.4709%

User-callback calls 24884, time in user-callback 0.04 sec
